     Program PWSCF v.7.3.1 starts on 26Jun2024 at 21: 3: 4

     Reading input from espresso.pwi
Warning: card &CELL ignored
Warning: card / ignored
Warning: card &FCP ignored
Warning: card / ignored
Warning: card &RISM ignored
Warning: card / ignored

     Current dimensions of program PWSCF are:
     Max number of different atomic species (ntypx) = 10
     Max number of k-points (npk) =  40000
     Max angular momentum in pseudopotentials (lmaxx) =  4
     signal trapping enabled: kill the code with -SIGUSR1 to stop cleanly the simulation
     Message from routine setup:
     using ibrav=0 with symmetry is DISCOURAGED, use correct ibrav instead

     K-points division:     npool     =       4
     R & G space division:  proc/nbgrp/npool/nimage =       8
     Subspace diagonalization in iterative solution of the eigenvalue problem:
     a serial algorithm will be used

     Using Slab Decomposition

     bravais-lattice index     =            0
     lattice parameter (alat)  =       8.4977  a.u.
     unit-cell volume          =     423.6931 (a.u.)^3
     number of atoms/cell      =            6
     number of atomic types    =            2
     number of electrons       =        56.00
     number of Kohn-Sham states=           34
     kinetic-energy cutoff     =      40.0000  Ry
     charge density cutoff     =     320.0000  Ry
     scf convergence threshold =      1.0E-08
     mixing beta               =       0.7000
     number of iterations used =            8  plain     mixing
     Exchange-correlation= SLA  PW   PSX  PSC
                           (   1   4  10   8   0   0   0)

     celldm(1)=   8.497720  celldm(2)=   0.000000  celldm(3)=   0.000000
     celldm(4)=   0.000000  celldm(5)=   0.000000  celldm(6)=   0.000000

     crystal axes: (cart. coord. in units of alat)
               a(1) = (   1.000000   0.000000   0.000000 )
               a(2) = (   0.000000   1.000000   0.000000 )
               a(3) = (   0.000000   0.000000   0.690469 )

     reciprocal axes: (cart. coord. in units 2 pi/alat)
               b(1) = (  1.000000  0.000000  0.000000 )
               b(2) = (  0.000000  1.000000  0.000000 )
               b(3) = (  0.000000  0.000000  1.448291 )

     PseudoPot. # 1 for Ru read from file:
     ./pseudos/ru_pbesol_v1.2.uspp.F.UPF
     MD5 check sum: f86cd6c1aa6b621eb21bb2137df4e461
     Pseudo is Ultrasoft + core correction, Zval = 16.0
     Generated by new atomic code, or converted to UPF format
     Using radial grid of  967 points,  6 beta functions with:
                l(1) =   0
                l(2) =   0
                l(3) =   1
                l(4) =   1
                l(5) =   2
                l(6) =   2
     Q(r) pseudized with  8 coefficients,  rinner =    1.300   1.300   1.300
                                                       1.300   1.300

     PseudoPot. # 2 for O  read from file:
     ./pseudos/o_pbesol_v1.2.uspp.F.UPF
     MD5 check sum: 501638753501ef6325af9037351f7734
     Pseudo is Ultrasoft + core correction, Zval =  6.0
     Generated by new atomic code, or converted to UPF format
     Using radial grid of  737 points,  5 beta functions with:
                l(1) =   0
                l(2) =   0
                l(3) =   1
                l(4) =   1
                l(5) =   2
     Q(r) pseudized with  8 coefficients,  rinner =    0.900   0.900   0.900
                                                       0.900   0.900

     atomic species   valence    mass     pseudopotential
     Ru               16.00   101.07000     Ru( 1.00)
     O                 6.00    15.99900     O ( 1.00)

     16 Sym. Ops., with inversion, found ( 8 have fractional translation)

   Cartesian axes

     site n.     atom                  positions (alat units)
         1        Ru     tau(   1) = (   0.0000000   0.0000000   0.0000000  )
         2        Ru     tau(   2) = (   0.5000000   0.5000000   0.3452344  )
         3        O      tau(   3) = (   0.3056792   0.3056792   0.0000000  )
         4        O      tau(   4) = (   0.6943208   0.6943208   0.0000000  )
         5        O      tau(   5) = (   0.8056792   0.1943208   0.3452344  )
         6        O      tau(   6) = (   0.1943208   0.8056792   0.3452344  )

     number of k points=    18  Gaussian smearing, width (Ry)=  0.0100
                       cart. coord. in units 2pi/alat
        k(    1) = (   0.0000000   0.0000000   0.0000000), wk =   0.0312500
        k(    2) = (   0.0000000   0.0000000   0.3620729), wk =   0.0625000
        k(    3) = (   0.0000000   0.0000000  -0.7241457), wk =   0.0312500
        k(    4) = (   0.0000000   0.2500000   0.0000000), wk =   0.1250000
        k(    5) = (   0.0000000   0.2500000   0.3620729), wk =   0.2500000
        k(    6) = (   0.0000000   0.2500000  -0.7241457), wk =   0.1250000
        k(    7) = (   0.0000000  -0.5000000   0.0000000), wk =   0.0625000
        k(    8) = (   0.0000000  -0.5000000   0.3620729), wk =   0.1250000
        k(    9) = (   0.0000000  -0.5000000  -0.7241457), wk =   0.0625000
        k(   10) = (   0.2500000   0.2500000   0.0000000), wk =   0.1250000
        k(   11) = (   0.2500000   0.2500000   0.3620729), wk =   0.2500000
        k(   12) = (   0.2500000   0.2500000  -0.7241457), wk =   0.1250000
        k(   13) = (   0.2500000  -0.5000000   0.0000000), wk =   0.1250000
        k(   14) = (   0.2500000  -0.5000000   0.3620729), wk =   0.2500000
        k(   15) = (   0.2500000  -0.5000000  -0.7241457), wk =   0.1250000
        k(   16) = (  -0.5000000  -0.5000000   0.0000000), wk =   0.0312500
        k(   17) = (  -0.5000000  -0.5000000   0.3620729), wk =   0.0625000
        k(   18) = (  -0.5000000  -0.5000000  -0.7241457), wk =   0.0312500

     Check: negative core charge=   -0.000001

     Initial potential from superposition of free atoms

     starting charge      54.0000, renormalised to      56.0000

     negative rho (up, down):  1.472E-01 0.000E+00
     Starting wfcs are   42 randomized atomic wfcs

     Self-consistent Calculation

     iteration #  1     ecut=    40.00 Ry     beta= 0.70
     Davidson diagonalization with overlap
     ethr =  1.00E-02,  avg # of iterations =  2.0

     negative rho (up, down):  1.500E-01 0.000E+00

     total energy              =    -515.50965996 Ry
     estimated scf accuracy    <       3.16544793 Ry

[...]

     total energy              =    -517.30475856 Ry
     estimated scf accuracy    <       0.00000003 Ry

     iteration # 10     ecut=    40.00 Ry     beta= 0.70
     Davidson diagonalization with overlap
     ethr =  4.85E-11,  avg # of iterations =  2.0

[...]

     End of self-consistent calculation

          k = 0.0000 0.0000 0.0000 (  1803 PWs)   bands (ev):

   -60.4620 -60.4552 -30.7383 -30.7383 -30.3312 -30.3312 -30.3300 -30.3040
    -7.1871  -6.1125  -5.1293  -5.1293   4.4452   4.5505   5.6818   6.0992
     6.0992   8.6901   8.7012   8.7012  10.1703  10.6178  10.6178  11.1732
    11.4195  11.5445  11.6239  11.6239  12.0667  14.5046  14.7511  17.5100
    17.5100  18.8292

[...]

          k = 0.2500-0.5000-0.7241 (  1812 PWs)   bands (ev):

[...]

          k =-0.5000-0.5000 0.0000 (  1784 PWs)   bands (ev):

[...]

          k =-0.5000-0.5000-0.7241 (  1808 PWs)   bands (ev):

   -60.4475 -60.4475 -30.7234 -30.7234 -30.5046 -30.5046 -30.3032 -30.3032
    -5.7796  -5.7796  -5.7522  -5.7522   5.8776   5.8776   6.0010   6.0010
     6.6798   6.6798   8.0835   8.0835   9.3013   9.3013  10.4431  10.4431
    12.4423  12.4423  12.4654  12.4654  13.1878  13.1878  16.0194  16.0194
    16.7293  16.7293

     the Fermi energy is    13.0329 ev

!    total energy              =    -517.30475857 Ry
     estimated scf accuracy    <          2.2E-10 Ry
     smearing contrib. (-TS)   =      -0.00175984 Ry
     internal energy E=F+TS    =    -517.30299873 Ry

     The total energy is F=E-TS. E is the sum of the following terms:
     one-electron contribution =    -165.50404192 Ry
     hartree contribution      =     114.47101151 Ry
     xc contribution           =     -79.94824060 Ry
     ewald contribution        =    -386.32172771 Ry

     convergence has been achieved in  10 iterations

     negative rho (up, down):  1.512E-01 0.000E+00

     Forces acting on atoms (cartesian axes, Ry/au):

     atom    1 type  1   force =     0.00000000    0.00000000    0.00000000
     atom    2 type  1   force =     0.00000000    0.00000000    0.00000000
     atom    3 type  2   force =    -0.00000150   -0.00000150   -0.00000000
     atom    4 type  2   force =     0.00000150    0.00000150   -0.00000000
     atom    5 type  2   force =    -0.00000150    0.00000150    0.00000000
     atom    6 type  2   force =     0.00000150   -0.00000150    0.00000000

     Total force =     0.000004     Total SCF correction =     0.000007
     SCF correction compared to forces is large: reduce conv_thr to get better values

     Computing stress (Cartesian axis) and pressure

     negative rho (up, down):  1.512E-01 0.000E+00
          total   stress  (Ry/bohr**3)                   (kbar)     P=      -46.13
  -0.00027305   0.00000000   0.00000000          -40.17        0.00        0.00
   0.00000000  -0.00027305   0.00000000            0.00      -40.17        0.00
   0.00000000   0.00000000  -0.00039473            0.00        0.00      -58.07

     Writing all to output data dir ./RuO2.save/ :
     XML data file, charge density, pseudopotentials, collected wavefunctions

     General routines

     Parallel routines

   This run was terminated on:  21: 3: 6  26Jun2024

   JOB DONE.