     Program PWSCF v.7.3.1 starts on 27Jun2024 at 17:25: 9

     Waiting for input...
     Reading input from standard input
Warning: card &FCP ignored
Warning: card / ignored
Warning: card &RISM ignored
Warning: card / ignored

     Current dimensions of program PWSCF are:
     Max number of different atomic species (ntypx) = 10
     Max number of k-points (npk) =  40000
     Max angular momentum in pseudopotentials (lmaxx) =  4
     signal trapping enabled: kill the code with -SIGUSR1 to stop cleanly the simulation
     Message from routine setup:
     using ibrav=0 with symmetry is DISCOURAGED, use correct ibrav instead

     K-points division:     npool     =       4
     R & G space division:  proc/nbgrp/npool/nimage =       8
     Subspace diagonalization in iterative solution of the eigenvalue problem:
     a serial algorithm will be used

     Using Slab Decomposition

     bravais-lattice index     =            0
     lattice parameter (alat)  =       8.4977  a.u.
     unit-cell volume          =     423.6931 (a.u.)^3
     number of atoms/cell      =            6
     number of atomic types    =            2
     number of electrons       =        56.00
     number of Kohn-Sham states=           34
     kinetic-energy cutoff     =      40.0000  Ry
     charge density cutoff     =     320.0000  Ry
     scf convergence threshold =      1.0E-08
     mixing beta               =       0.7000
     number of iterations used =            8  plain     mixing
     energy convergence thresh.=      1.0E-04
     force convergence thresh. =      1.0E-03
     press convergence thresh. =      5.0E-01
     Exchange-correlation= SLA  PW   PSX  PSC
                           (   1   4  10   8   0   0   0)
     nstep                     =           50

     Hubbard projectors: ortho-atomic
     Hubbard parameters of DFT+U (Dudarev formulation) in eV:
     U(Ru-4d) =  2.3650
     alpha(Ru-4d) = -0.0200

     Internal variables: lda_plus_u = T, lda_plus_u_kind = 0

     celldm(1)=   8.497720  celldm(2)=   0.000000  celldm(3)=   0.000000
     celldm(4)=   0.000000  celldm(5)=   0.000000  celldm(6)=   0.000000

     crystal axes: (cart. coord. in units of alat)
               a(1) = (   1.000000   0.000000   0.000000 )
               a(2) = (   0.000000   1.000000   0.000000 )
               a(3) = (   0.000000   0.000000   0.690469 )

     reciprocal axes: (cart. coord. in units 2 pi/alat)
               b(1) = (  1.000000  0.000000  0.000000 )
               b(2) = (  0.000000  1.000000  0.000000 )
               b(3) = (  0.000000  0.000000  1.448291 )

     PseudoPot. # 1 for Ru read from file:
     ./pseudos/ru_pbesol_v1.2.uspp.F.UPF
     MD5 check sum: f86cd6c1aa6b621eb21bb2137df4e461
     Pseudo is Ultrasoft + core correction, Zval = 16.0
     Generated by new atomic code, or converted to UPF format
     Using radial grid of  967 points,  6 beta functions with:
                l(1) =   0
                l(2) =   0
                l(3) =   1
                l(4) =   1
                l(5) =   2
                l(6) =   2
     Q(r) pseudized with  8 coefficients,  rinner =    1.300   1.300   1.300
                                                       1.300   1.300

     PseudoPot. # 2 for O  read from file:
     ./pseudos/o_pbesol_v1.2.uspp.F.UPF
     MD5 check sum: 501638753501ef6325af9037351f7734
     Pseudo is Ultrasoft + core correction, Zval =  6.0
     Generated by new atomic code, or converted to UPF format
     Using radial grid of  737 points,  5 beta functions with:
                l(1) =   0
                l(2) =   0
                l(3) =   1
                l(4) =   1
                l(5) =   2
     Q(r) pseudized with  8 coefficients,  rinner =    0.900   0.900   0.900
                                                       0.900   0.900

     atomic species   valence    mass     pseudopotential
     Ru               16.00   101.07000     Ru( 1.00)
     O                 6.00    15.99900     O ( 1.00)

     16 Sym. Ops., with inversion, found ( 8 have fractional translation)

   Cartesian axes

     site n.     atom                  positions (alat units)
         1        Ru     tau(   1) = (   0.0000000   0.0000000   0.0000000  )
         2        Ru     tau(   2) = (   0.5000000   0.5000000   0.3452344  )
         3        O      tau(   3) = (   0.3053000   0.3053000   0.0000000  )
         4        O      tau(   4) = (   0.6947000   0.6947000   0.0000000  )
         5        O      tau(   5) = (   0.8053000   0.1947000   0.3452344  )
         6        O      tau(   6) = (   0.1947000   0.8053000   0.3452344  )

     number of k points=    18  Gaussian smearing, width (Ry)=  0.0100
                       cart. coord. in units 2pi/alat
        k(    1) = (   0.0000000   0.0000000   0.0000000), wk =   0.0312500
        k(    2) = (   0.0000000   0.0000000   0.3620729), wk =   0.0625000
        k(    3) = (   0.0000000   0.0000000  -0.7241457), wk =   0.0312500
        k(    4) = (   0.0000000   0.2500000   0.0000000), wk =   0.1250000
        k(    5) = (   0.0000000   0.2500000   0.3620729), wk =   0.2500000
        k(    6) = (   0.0000000   0.2500000  -0.7241457), wk =   0.1250000
        k(    7) = (   0.0000000  -0.5000000   0.0000000), wk =   0.0625000
        k(    8) = (   0.0000000  -0.5000000   0.3620729), wk =   0.1250000
        k(    9) = (   0.0000000  -0.5000000  -0.7241457), wk =   0.0625000
        k(   10) = (   0.2500000   0.2500000   0.0000000), wk =   0.1250000
        k(   11) = (   0.2500000   0.2500000   0.3620729), wk =   0.2500000
        k(   12) = (   0.2500000   0.2500000  -0.7241457), wk =   0.1250000
        k(   13) = (   0.2500000  -0.5000000   0.0000000), wk =   0.1250000
        k(   14) = (   0.2500000  -0.5000000   0.3620729), wk =   0.2500000
        k(   15) = (   0.2500000  -0.5000000  -0.7241457), wk =   0.1250000
        k(   16) = (  -0.5000000  -0.5000000   0.0000000), wk =   0.0312500
        k(   17) = (  -0.5000000  -0.5000000   0.3620729), wk =   0.0625000
        k(   18) = (  -0.5000000  -0.5000000  -0.7241457), wk =   0.0312500

     Check: negative core charge=   -0.000001

     The initial density is read from file :
     RuO2_out/RuO2_o.save/charge-density

     negative rho (up, down):  1.512E-01 0.000E+00

     STARTING HUBBARD OCCUPATIONS:

     =================== HUBBARD OCCUPATIONS ===================
     ------------------------ ATOM    1 ------------------------
     Tr[ns(  1)] =   6.27649
     eigenvalues:
       0.381  0.415  0.614  0.766  0.964
     eigenvectors (columns):
       0.000 -0.585  0.000  0.000  0.811
      -0.707 -0.000 -0.000 -0.707  0.000
       0.707  0.000 -0.000 -0.707  0.000
      -0.000  0.000  1.000 -0.000 -0.000
      -0.000  0.811 -0.000 -0.000  0.585
     occupation matrix ns (before diag.):
       0.776 -0.000 -0.000 -0.000  0.260
      -0.000  0.573  0.192  0.000  0.000
      -0.000  0.192  0.573  0.000  0.000
      -0.000  0.000  0.000  0.614 -0.000
       0.260  0.000  0.000 -0.000  0.602
     ------------------------ ATOM    2 ------------------------
     Tr[ns(  2)] =   6.27649
     eigenvalues:
       0.381  0.415  0.614  0.766  0.964
     eigenvectors (columns):
       0.000  0.585 -0.000  0.000 -0.811
      -0.707  0.000  0.000 -0.707  0.000
      -0.707  0.000  0.000  0.707  0.000
       0.000  0.000  1.000 -0.000 -0.000
       0.000  0.811 -0.000  0.000  0.585
     occupation matrix ns (before diag.):
       0.776 -0.000 -0.000  0.000 -0.260
      -0.000  0.573 -0.192  0.000  0.000
      -0.000 -0.192  0.573  0.000  0.000
       0.000  0.000  0.000  0.614 -0.000
      -0.260  0.000  0.000 -0.000  0.602

     Number of occupied Hubbard levels =   12.5530

     Atomic wfc used for Hubbard projectors are orthogonalized

     Starting wfcs are   42 randomized atomic wfcs

     Self-consistent Calculation

     iteration #  1     ecut=    40.00 Ry     beta= 0.70
     Davidson diagonalization with overlap
     ethr =  1.00E-05,  avg # of iterations =  6.8

[...]

     Threshold (ethr) on eigenvalues was too large:
     Diagonalizing with lowered threshold

     Davidson diagonalization with overlap
     ethr =  5.16E-10,  avg # of iterations =  8.7

[...]

     total energy              =    -516.99030163 Ry
     estimated scf accuracy    <       0.00000014 Ry

[...]

     End of self-consistent calculation

[...]

          k = 0.0000 0.0000 0.0000 (  1803 PWs)   bands (ev):

   -60.3580 -60.3512 -30.7000 -30.7000 -30.2393 -30.2393 -30.1620 -30.1355
    -7.1975  -6.0874  -5.1448  -5.1448   4.3302   4.4523   5.5372   6.2209
     6.2209   8.6826   8.6826   8.7002  10.1831  10.5916  10.5916  10.6007
    11.1152  11.1688  11.1688  11.2787  11.3722  14.5756  14.6478  17.6607
    17.6607  18.8035

[...]

          k =-0.5000-0.5000 0.0000 (  1784 PWs)   bands (ev):

[...]

     the Fermi energy is    12.6430 ev

!    total energy              =    -516.99030172 Ry
     estimated scf accuracy    <          6.7E-11 Ry
     smearing contrib. (-TS)   =      -0.00160431 Ry
     internal energy E=F+TS    =    -516.98869741 Ry

     The total energy is F=E-TS. E is the sum of the following terms:
     one-electron contribution =    -165.58083376 Ry
     hartree contribution      =     114.61246593 Ry
     xc contribution           =     -79.96872501 Ry
     ewald contribution        =    -386.35652920 Ry
     Hubbard energy            =       0.30492462 Ry

     convergence has been achieved in   3 iterations

[...]

     Forces acting on atoms (cartesian axes, Ry/au):

     atom    1 type  1   force =     0.00000000    0.00000000    0.00000000
     atom    2 type  1   force =     0.00000000    0.00000000    0.00000000
     atom    3 type  2   force =    -0.00446808   -0.00446808    0.00000000
     atom    4 type  2   force =     0.00446808    0.00446808    0.00000000
     atom    5 type  2   force =    -0.00446808    0.00446808   -0.00000000
     atom    6 type  2   force =     0.00446808   -0.00446808   -0.00000000

     Total force =     0.012638     Total SCF correction =     0.000002

     Computing stress (Cartesian axis) and pressure

     negative rho (up, down):  1.512E-01 0.000E+00
          total   stress  (Ry/bohr**3)                   (kbar)     P=      -36.45
  -0.00027761   0.00000000   0.00000000          -40.84        0.00        0.00
   0.00000000  -0.00027761   0.00000000            0.00      -40.84        0.00
   0.00000000   0.00000000  -0.00018817            0.00        0.00      -27.68

     BFGS Geometry Optimization
     Energy error            =      0.0E+00 Ry
     Gradient error          =      4.5E-03 Ry/Bohr
     Cell gradient error     =      4.1E+01 kbar

     number of scf cycles    =   1
     number of bfgs steps    =   0

     enthalpy           new  =    -516.9903017235 Ry

     new trust radius        =       0.0285714740 bohr
     new conv_thr            =       0.0000000100 Ry

     new unit-cell volume =    415.86677 a.u.^3 (    61.62510 Ang^3 )
     density =      7.17125 g/cm^3

CELL_PARAMETERS (angstrom)
   4.465590951   0.000000000   0.000000000
   0.000000000   4.465590951   0.000000000
   0.000000000   0.000000000   3.090293615

ATOMIC_POSITIONS (angstrom)
Ru               0.0000000000        0.0000000000        0.0000000000
Ru               2.2327954753        2.2327954753        1.5451468076
O                1.3609969189        1.3609969189        0.0000000000
O                3.1045940317        3.1045940317        0.0000000000
O                3.5937923942        0.8717985564        1.5451468076
O                0.8717985564        3.5937923942        1.5451468076

     Writing config-only to output data dir RuO2_out/RuO2_o.save/ :
     XML data file
     NEW-OLD atomic charge density approx. for the potential

[...]

     Energy error            =      7.7E-04 Ry
     Gradient error          =      2.1E-03 Ry/Bohr
     Cell gradient error     =      2.3E+01 kbar

[...]

     enthalpy           old  =    -516.9903017235 Ry
     enthalpy           new  =    -516.9910694743 Ry

     CASE: enthalpy          _new < enthalpy          _old

[...]

     number of scf cycles    =   3
     number of bfgs steps    =   2

     enthalpy           old  =    -516.9910694743 Ry
     enthalpy           new  =    -516.9912124428 Ry

     CASE: enthalpy          _new < enthalpy          _old

     new trust radius        =       0.0008817495 bohr
     new conv_thr            =            1.0E-10 Ry

     new unit-cell volume =    417.88608 a.u.^3 (    61.92433 Ang^3 )
     density =      7.13660 g/cm^3

[...]

ATOMIC_POSITIONS (angstrom)
Ru               0.0000000000        0.0000000000        0.0000000000
Ru               2.2349971763        2.2349971763        1.5495919858
O                1.3610502230        1.3610502230       -0.0000000000
O                3.1089441295        3.1089441295       -0.0000000000
O                3.5960473993        0.8739469533        1.5495919858
O                0.8739469533        3.5960473993        1.5495919858

     Writing config-only to output data dir RuO2_out/RuO2_o.save/ :
     XML data file
     NEW-OLD atomic charge density approx. for the potential

[...]

     Threshold (ethr) on eigenvalues was too large:
     Diagonalizing with lowered threshold

     Davidson diagonalization with overlap
     ethr =  5.32E-10,  avg # of iterations =  3.6

[...]

     Energy error            =      1.8E-06 Ry
     Gradient error          =      1.5E-04 Ry/Bohr
     Cell gradient error     =      3.8E-01 kbar

     bfgs converged in   4 scf cycles and   3 bfgs steps
     (criteria: energy <  1.0E-04 Ry, force <  1.0E-03 Ry/Bohr, cell <  5.0E-01 kbar)

     End of BFGS Geometry Optimization

     Final enthalpy           =    -516.9912142562 Ry

     File RuO2_out/RuO2_o.bfgs deleted, as requested
Begin final coordinates
     new unit-cell volume =    417.88608 a.u.^3 (    61.92433 Ang^3 )
     density =      7.13660 g/cm^3

CELL_PARAMETERS (angstrom)
   4.469994353   0.000000000   0.000000000
   0.000000000   4.469994353   0.000000000
   0.000000000   0.000000000   3.099183972

ATOMIC_POSITIONS (angstrom)
Ru               0.0000000000        0.0000000000        0.0000000000
Ru               2.2349971763        2.2349971763        1.5495919858
O                1.3610502230        1.3610502230       -0.0000000000
O                3.1089441295        3.1089441295       -0.0000000000
O                3.5960473993        0.8739469533        1.5495919858
O                0.8739469533        3.5960473993        1.5495919858
End final coordinates

     Writing config-only to output data dir RuO2_out/RuO2_o.save/ :
     XML data file

     Final scf calculation at the relaxed structure.
     The G-vectors are recalculated for the final unit cell
     Results may differ from those at the preceding step.

     Using Slab Decomposition

     bravais-lattice index     =            0
     lattice parameter (alat)  =       8.4977  a.u.
     unit-cell volume          =     417.8861 (a.u.)^3
     number of atoms/cell      =            6
     number of atomic types    =            2
     number of electrons       =        56.00
     number of Kohn-Sham states=           34
     kinetic-energy cutoff     =      40.0000  Ry
     charge density cutoff     =     320.0000  Ry
     scf convergence threshold =      1.0E-10
     mixing beta               =       0.7000
     number of iterations used =            8  plain     mixing
     press convergence thresh. =      5.0E-01
     Exchange-correlation= SLA  PW   PSX  PSC
                           (   1   4  10   8   0   0   0)
     Hubbard projectors: ortho-atomic
     Hubbard parameters of DFT+U (Dudarev formulation) in eV:
     U(Ru-4d) =  2.3650
     alpha(Ru-4d) = -0.0200

     Internal variables: lda_plus_u = T, lda_plus_u_kind = 0

     celldm(1)=   8.497720  celldm(2)=   0.000000  celldm(3)=   0.000000
     celldm(4)=   0.000000  celldm(5)=   0.000000  celldm(6)=   0.000000

     crystal axes: (cart. coord. in units of alat)
               a(1) = (   0.994039   0.000000   0.000000 )
               a(2) = (   0.000000   0.994039   0.000000 )
               a(3) = (   0.000000   0.000000   0.689198 )

     reciprocal axes: (cart. coord. in units 2 pi/alat)
               b(1) = (  1.005997  0.000000  0.000000 )
               b(2) = (  0.000000  1.005997  0.000000 )
               b(3) = (  0.000000  0.000000  1.450963 )

     PseudoPot. # 1 for Ru read from file:
     ./pseudos/ru_pbesol_v1.2.uspp.F.UPF
     MD5 check sum: f86cd6c1aa6b621eb21bb2137df4e461
     Pseudo is Ultrasoft + core correction, Zval = 16.0
     Generated by new atomic code, or converted to UPF format
     Using radial grid of  967 points,  6 beta functions with:
                l(1) =   0
                l(2) =   0
                l(3) =   1
                l(4) =   1
                l(5) =   2
                l(6) =   2
     Q(r) pseudized with  8 coefficients,  rinner =    1.300   1.300   1.300
                                                       1.300   1.300

     PseudoPot. # 2 for O  read from file:
     ./pseudos/o_pbesol_v1.2.uspp.F.UPF
     MD5 check sum: 501638753501ef6325af9037351f7734
     Pseudo is Ultrasoft + core correction, Zval =  6.0
     Generated by new atomic code, or converted to UPF format
     Using radial grid of  737 points,  5 beta functions with:
                l(1) =   0
                l(2) =   0
                l(3) =   1
                l(4) =   1
                l(5) =   2
     Q(r) pseudized with  8 coefficients,  rinner =    0.900   0.900   0.900
                                                       0.900   0.900

     atomic species   valence    mass     pseudopotential
     Ru               16.00   101.07000     Ru( 1.00)
     O                 6.00    15.99900     O ( 1.00)

     16 Sym. Ops., with inversion, found ( 8 have fractional translation)

   Cartesian axes

     site n.     atom                  positions (alat units)
         1        Ru     tau(   1) = (   0.0000000   0.0000000   0.0000000  )
         2        Ru     tau(   2) = (   0.4970195   0.4970195   0.3445988  )
         3        O      tau(   3) = (   0.3026708   0.3026708  -0.0000000  )
         4        O      tau(   4) = (   0.6913681   0.6913681  -0.0000000  )
         5        O      tau(   5) = (   0.7996903   0.1943486   0.3445988  )
         6        O      tau(   6) = (   0.1943486   0.7996903   0.3445988  )

     number of k points=    18  Gaussian smearing, width (Ry)=  0.0100
                       cart. coord. in units 2pi/alat
        k(    1) = (   0.0000000   0.0000000   0.0000000), wk =   0.0312500
        k(    2) = (   0.0000000   0.0000000   0.3627406), wk =   0.0625000
        k(    3) = (   0.0000000   0.0000000  -0.7254813), wk =   0.0312500
        k(    4) = (   0.0000000   0.2514992   0.0000000), wk =   0.1250000
        k(    5) = (   0.0000000   0.2514992   0.3627406), wk =   0.2500000
        k(    6) = (   0.0000000   0.2514992  -0.7254813), wk =   0.1250000
        k(    7) = (   0.0000000  -0.5029984   0.0000000), wk =   0.0625000
        k(    8) = (   0.0000000  -0.5029984   0.3627406), wk =   0.1250000
        k(    9) = (   0.0000000  -0.5029984  -0.7254813), wk =   0.0625000
        k(   10) = (   0.2514992   0.2514992   0.0000000), wk =   0.1250000
        k(   11) = (   0.2514992   0.2514992   0.3627406), wk =   0.2500000
        k(   12) = (   0.2514992   0.2514992  -0.7254813), wk =   0.1250000
        k(   13) = (   0.2514992  -0.5029984   0.0000000), wk =   0.1250000
        k(   14) = (   0.2514992  -0.5029984   0.3627406), wk =   0.2500000
        k(   15) = (   0.2514992  -0.5029984  -0.7254813), wk =   0.1250000
        k(   16) = (  -0.5029984  -0.5029984   0.0000000), wk =   0.0312500
        k(   17) = (  -0.5029984  -0.5029984   0.3627406), wk =   0.0625000
        k(   18) = (  -0.5029984  -0.5029984  -0.7254813), wk =   0.0312500

     Check: negative core charge=   -0.000001

     Initial potential from superposition of free atoms

     starting charge      55.0162, renormalised to      56.0000

[...]

     STARTING HUBBARD OCCUPATIONS:

[...]

     Atomic wfc used for Hubbard projectors are orthogonalized

     Starting wfcs are   42 randomized atomic wfcs

     Self-consistent Calculation

     iteration #  1     ecut=    40.00 Ry     beta= 0.70
     Davidson diagonalization with overlap
     c_bands:  1 eigenvalues not converged
     ethr =  1.00E-06,  avg # of iterations = 11.1

[...]

     total energy              =    -516.99111928 Ry
     estimated scf accuracy    <          2.0E-10 Ry

     iteration # 11     ecut=    40.00 Ry     beta= 0.70
     Davidson diagonalization with overlap
     ethr =  3.49E-13,  avg # of iterations =  4.6

[...]

     End of self-consistent calculation

     =================== HUBBARD OCCUPATIONS ===================
     ------------------------ ATOM    1 ------------------------
     Tr[ns(  1)] =   6.27758
     eigenvalues:
       0.382  0.416  0.610  0.768  0.964
     eigenvectors (columns):
       0.000 -0.585  0.000  0.000  0.811
      -0.707 -0.000 -0.000 -0.707  0.000
       0.707  0.000 -0.000 -0.707  0.000
      -0.000  0.000  1.000 -0.000 -0.000
      -0.000  0.811 -0.000 -0.000  0.585
     occupation matrix ns (before diag.):
       0.776 -0.000 -0.000 -0.000  0.260
      -0.000  0.575  0.193  0.000  0.000
      -0.000  0.193  0.575  0.000  0.000
      -0.000  0.000  0.000  0.610 -0.000
       0.260  0.000  0.000 -0.000  0.603
     ------------------------ ATOM    2 ------------------------
     Tr[ns(  2)] =   6.27758
     eigenvalues:
       0.382  0.416  0.610  0.768  0.964
     eigenvectors (columns):
       0.000  0.585 -0.000  0.000 -0.811
      -0.707  0.000  0.000 -0.707  0.000
      -0.707  0.000  0.000  0.707  0.000
       0.000  0.000  1.000 -0.000 -0.000
       0.000  0.811 -0.000  0.000  0.585
     occupation matrix ns (before diag.):
       0.776 -0.000 -0.000  0.000 -0.260
      -0.000  0.575 -0.193  0.000  0.000
      -0.000 -0.193  0.575  0.000  0.000
       0.000  0.000  0.000  0.610 -0.000
      -0.260  0.000  0.000 -0.000  0.603

     Number of occupied Hubbard levels =   12.5552

[...]

          k = 0.2515-0.5030-0.7255 (  1780 PWs)   bands (ev):

[...]

          k =-0.5030-0.5030-0.7255 (  1760 PWs)   bands (ev):

   -60.0725 -60.0725 -30.4328 -30.4328 -30.0677 -30.0677 -29.9480 -29.9480
    -5.5525  -5.5525  -5.5373  -5.5373   5.8569   5.8569   6.2086   6.2086
     6.9039   6.9039   8.4100   8.4100   9.3521   9.3521  10.6901  10.6901
    11.8293  11.8293  12.6074  12.6074  13.0702  13.0702  16.5637  16.5637
    17.2905  17.2905

     the Fermi energy is    12.9373 ev

!    total energy              =    -516.99111928 Ry
     estimated scf accuracy    <          5.1E-11 Ry
     smearing contrib. (-TS)   =      -0.00168760 Ry
     internal energy E=F+TS    =    -516.98943169 Ry

     The total energy is F=E-TS. E is the sum of the following terms:
     one-electron contribution =    -162.49960690 Ry
     hartree contribution      =     113.59958447 Ry
     xc contribution           =     -80.03661916 Ry
     ewald contribution        =    -388.35773340 Ry
     Hubbard energy            =       0.30494331 Ry

     convergence has been achieved in  11 iterations

     negative rho (up, down):  1.510E-01 0.000E+00

     Forces acting on atoms (cartesian axes, Ry/au):

     atom    1 type  1   force =     0.00000000    0.00000000    0.00000000
     atom    2 type  1   force =     0.00000000    0.00000000   -0.00000000
     atom    3 type  2   force =    -0.00014681   -0.00014681   -0.00000000
     atom    4 type  2   force =     0.00014681    0.00014681   -0.00000000
     atom    5 type  2   force =    -0.00014681    0.00014681    0.00000000
     atom    6 type  2   force =     0.00014681   -0.00014681    0.00000000

     Total force =     0.000415     Total SCF correction =     0.000007

     Computing stress (Cartesian axis) and pressure

     negative rho (up, down):  1.510E-01 0.000E+00
          total   stress  (Ry/bohr**3)                   (kbar)     P=       -0.11
   0.00000034   0.00000000   0.00000000            0.05        0.00        0.00
   0.00000000   0.00000034   0.00000000            0.00        0.05        0.00
   0.00000000   0.00000000  -0.00000301            0.00        0.00       -0.44

     Writing all to output data dir RuO2_out/RuO2_o.save/ :
     XML data file, charge density, pseudopotentials, collected wavefunctions

     General routines

     Parallel routines

     Hubbard U routines
                                        0.00s GPU  (       5 calls)
                                        0.00s GPU  (       5 calls)

   This run was terminated on:  17:25:20  27Jun2024

   JOB DONE.